(declare-const in0 Int)
(declare-const in2 Int)
(declare-const in1 Int)
(declare-const in4 Int)
(declare-const in3 Int)
(declare-const in6 Int)
(declare-const in5 Int)
(declare-const in8 Int)
(declare-const in7 Int)
(declare-const in11 Int)
(declare-const in10 Int)
(declare-const in9 Int)
(declare-const in13 Int)
(declare-const in12 Int)

(assert (and (and (and (and (and (and (and (and (and (and (and (and (and (and (and (and (and (and (and (and (and (and (and (and (and (and (and (and  ( <=  in0 in1)  ( <=  in2 in3))  ( <=  in0 in2))  ( <=  in1 in2))  ( <=  in4 in5))  ( <=  in4 in6))  ( <=  in5 in6))  ( <=  in0 in4))  ( <=  in1 in4))  ( <=  in2 in4))  ( <=  in3 in4))  ( <=  in7 in8))  ( <=  in9 in10))  ( <=  in7 in9))  ( <=  in8 in9))  ( <=  in11 in12))  ( <=  in11 in13))  ( <=  in12 in13))  ( <=  in7 in11))  ( <=  in8 in11))  ( <=  in9 in11))  ( <=  in10 in11))  ( <=  in0 in7))  ( <=  in1 in7))  ( <=  in2 in7))  ( <=  in3 in7))  ( <=  in4 in7))  ( <=  in5 in7))  ( <=  in6 in7)))

(check-sat)
(get-model)